Maximize
  - 2.789497968132 edge_0_1_0_10 - 3.6553256289272 edge_0_1_0_12
   - 4.1697209519095 edge_0_2_0_2 - 2.8587221299708 edge_0_2_0_6
   - 2.752585170174 edge_0_2_0_8 - 3.0288670298631 edge_0_3_0_2
   - 1.6345096077176 edge_0_3_0_3 - 2.113494934101 edge_0_3_0_8
   - 3.744925877616 edge_0_4_0_1 - 3.4108 edge_0_5_0_6
   - 3.700392223077 edge_0_6_0_4 - 4.6328993226543 edge_0_6_0_5
   - 1.8355897532217 edge_0_7_0_3 - 2.8965995600712 edge_0_7_0_5
   - 4.0927304762498 edge_0_8_0_5 + 0.2954816878286887 edge_1_2_10_6
   + 0.7561446232215048 edge_1_2_10_8 - 0.5118977649442161 edge_1_2_12_2
   + 1.116580531804715 edge_1_3_10_2 + 0.3681200716405416 edge_1_3_10_3
   + 0.9934998736711897 edge_1_3_10_8 - 0.1606198558793382 edge_1_3_12_8
   - 0.0997358086017704 edge_1_4_10_1 + 0.5518039564810934 edge_1_5_10_6
   - 0.7898986438076 edge_1_5_12_6 - 0.1510257906411455 edge_1_6_10_4
   - 0.1689716338562542 edge_1_6_10_5 - 0.0538197960509157 edge_1_6_12_4
   - 0.1830563078043039 edge_1_7_10_3 + 0.063627653959482 edge_1_7_10_5
   - 0.5035537037374923 edge_1_7_12_3 + 0.00194882896919341 edge_1_8_10_5
   - 0.4277940280124192 edge_1_8_12_5 + 0.9468311357499977 edge_2_1_2_12
   + 1.321704516398684 edge_2_1_6_10 + 1.353803927986928 edge_2_1_8_10
   + 2.984572052000057 edge_2_3_2_8 + 1.321378810758209 edge_2_3_6_3
   + 2.307387143927296 edge_2_3_6_8 + 1.17354688861887 edge_2_3_8_2
   + 0.6351784316092839 edge_2_4_2_1 + 0.4362293036632901 edge_2_4_6_1
   + 2.494363044836 edge_2_5_2_6 + 1.5732189616748 edge_2_5_6_6
   + 0.7730656325331015 edge_2_5_8_6 + 1.461629977530824 edge_2_6_2_4
   + 1.145191971244407 edge_2_6_6_4 + 1.015031185585475 edge_2_6_6_5
   + 1.268468471833754 edge_2_7_2_3 + 0.3622706730400417 edge_2_7_6_3
   - 0.0677011404523308 edge_2_7_8_5 + 1.259936577028788 edge_2_8_2_5
   + 0.3982852884439289 edge_2_8_6_5 + 1.20171663244402 edge_3_1_2_10
   + 1.917438814551474 edge_3_1_3_10 + 1.611309325989344 edge_3_1_8_10
   + 1.029702190511903 edge_3_1_8_12 + 2.903455974169942 edge_3_2_2_8
   + 1.8950482944553 edge_3_2_3_6 + 0.2942739431294324 edge_3_2_8_2
   + 1.460832861330714 edge_3_2_8_6 + 0.6761362888834018 edge_3_4_3_1
   + 0.2951049241912563 edge_3_4_8_1 + 2.85160893300054 edge_3_5_2_6
   + 2.829199320992 edge_3_5_3_6 + 0.81573588493102 edge_3_5_8_6
   + 2.160215463654064 edge_3_6_3_5 + 0.9746746708275977 edge_3_6_8_4
   + 0.6822306643887694 edge_3_7_2_5 + 2.146753473851043 edge_3_7_3_3
   + 1.171459428334383 edge_3_7_8_3 + 2.088136232167184 edge_3_8_3_5
   + 1.585662851161188 edge_3_8_8_5 + 0.5314472018540949 edge_4_1_1_10
   + 1.154741047556989 edge_4_1_1_12 - 0.0460710033506551 edge_4_2_1_2
   + 0.444929998963426 edge_4_2_1_6 - 0.1165934098478976 edge_4_3_1_8
   + 1.3243941790956 edge_4_5_1_6 + 0.4971823863258071 edge_4_6_1_4
   + 0.2715454553058341 edge_4_6_1_5 + 0.1401794367055786 edge_4_7_1_3
   + 0.1344649705338795 edge_4_8_1_5 + 0.4239195710081999 edge_5_1_6_10
   + 0.44987450518924 edge_5_1_6_12 - 0.045231322648109 edge_5_2_6_2
   + 0.50523766324188 edge_5_2_6_6 + 0.8836577174383209 edge_5_2_6_8
   + 0.4543989684203799 edge_5_3_6_2 + 0.7530678192636799 edge_5_3_6_3
   + 0.48926526914408 edge_5_3_6_8 + 3.2003560596684 edge_5_4_6_1
   + 1.8697011555992 edge_5_6_6_4 + 1.5321840667839 edge_5_6_6_5
   + 1.0256086874114 edge_5_7_6_3 - 0.0521392139952517 edge_5_7_6_5
   + 0.98383970279056 edge_5_8_6_5 - 1.370687725920757 edge_6_1_4_10
   - 0.7065140295378499 edge_6_1_4_12 - 1.328464368756634 edge_6_2_4_2
   - 1.013446277226453 edge_6_2_4_6 - 1.513947182673418 edge_6_3_4_8
   - 0.5416111814232472 edge_6_4_4_1 - 0.17585761100712 edge_6_5_4_6
   + 0.4360783935733949 edge_6_7_4_3 - 0.7354746670555061 edge_6_7_5_3
   + 0.436565596549614 edge_6_8_4_5 - 0.5874017759900036 edge_6_8_5_5
   + 0.5436057394821675 edge_7_1_3_10 + 1.673709758809522 edge_7_1_3_12
   - 1.301705173275864 edge_7_1_5_10 + 0.9800683089013574 edge_7_2_3_2
   - 0.1443185006565267 edge_7_2_3_6 - 0.726006792933128 edge_7_3_3_3
   - 0.0178052958627194 edge_7_3_3_8 - 1.266927445439331 edge_7_3_5_2
   + 0.2699473927670539 edge_7_4_3_1 + 0.4586246982372 edge_7_5_3_6
   - 0.8955029212128166 edge_7_5_5_6 + 0.6313056338937776 edge_7_6_3_4
   + 0.6992465386480796 edge_7_6_3_5 + 1.502834262275249 edge_7_8_3_5
   - 1.695897100042911 edge_8_2_5_2 - 2.345414930648738 edge_8_2_5_6
   - 2.539641632263207 edge_8_3_5_8 - 1.886913660388085 edge_8_4_5_1
   - 1.9465015992807 edge_8_5_5_6 - 1.230815332451281 edge_8_6_5_4
   - 0.632365662840381 edge_8_6_5_5 - 0.6207965878370071 edge_8_7_5_3
Subject To
 one_parent_1: edge_0_1_0_10 + edge_0_1_0_12 + edge_2_1_2_12
   + edge_2_1_6_10 + edge_2_1_8_10 + edge_3_1_2_10 + edge_3_1_3_10
   + edge_3_1_8_10 + edge_3_1_8_12 + edge_4_1_1_10 + edge_4_1_1_12
   + edge_5_1_6_10 + edge_5_1_6_12 + edge_6_1_4_10 + edge_6_1_4_12
   + edge_7_1_3_10 + edge_7_1_3_12 + edge_7_1_5_10 = 1
 one_pos_1: pos_1_10 + pos_1_12 = 1
 consume_one_flow_unit_1: flow_0_1_0_10 + flow_0_1_0_12 - flow_1_2_10_6
   - flow_1_2_10_8 - flow_1_2_12_2 - flow_1_3_10_2 - flow_1_3_10_3
   - flow_1_3_10_8 - flow_1_3_12_8 - flow_1_4_10_1 - flow_1_5_10_6
   - flow_1_5_12_6 - flow_1_6_10_4 - flow_1_6_10_5 - flow_1_6_12_4
   - flow_1_7_10_3 - flow_1_7_10_5 - flow_1_7_12_3 - flow_1_8_10_5
   - flow_1_8_12_5 + flow_2_1_2_12 + flow_2_1_6_10 + flow_2_1_8_10
   + flow_3_1_2_10 + flow_3_1_3_10 + flow_3_1_8_10 + flow_3_1_8_12
   + flow_4_1_1_10 + flow_4_1_1_12 + flow_5_1_6_10 + flow_5_1_6_12
   + flow_6_1_4_10 + flow_6_1_4_12 + flow_7_1_3_10 + flow_7_1_3_12
   + flow_7_1_5_10 = 1
 one_parent_2: edge_0_2_0_2 + edge_0_2_0_6 + edge_0_2_0_8 + edge_1_2_10_6
   + edge_1_2_10_8 + edge_1_2_12_2 + edge_3_2_2_8 + edge_3_2_3_6
   + edge_3_2_8_2 + edge_3_2_8_6 + edge_4_2_1_2 + edge_4_2_1_6
   + edge_5_2_6_2 + edge_5_2_6_6 + edge_5_2_6_8 + edge_6_2_4_2
   + edge_6_2_4_6 + edge_7_2_3_2 + edge_7_2_3_6 + edge_8_2_5_2
   + edge_8_2_5_6 = 1
 one_pos_2: pos_2_2 + pos_2_6 + pos_2_8 = 1
 consume_one_flow_unit_2: flow_0_2_0_2 + flow_0_2_0_6 + flow_0_2_0_8
   + flow_1_2_10_6 + flow_1_2_10_8 + flow_1_2_12_2 - flow_2_1_2_12
   - flow_2_1_6_10 - flow_2_1_8_10 - flow_2_3_2_8 - flow_2_3_6_3
   - flow_2_3_6_8 - flow_2_3_8_2 - flow_2_4_2_1 - flow_2_4_6_1
   - flow_2_5_2_6 - flow_2_5_6_6 - flow_2_5_8_6 - flow_2_6_2_4
   - flow_2_6_6_4 - flow_2_6_6_5 - flow_2_7_2_3 - flow_2_7_6_3
   - flow_2_7_8_5 - flow_2_8_2_5 - flow_2_8_6_5 + flow_3_2_2_8
   + flow_3_2_3_6 + flow_3_2_8_2 + flow_3_2_8_6 + flow_4_2_1_2
   + flow_4_2_1_6 + flow_5_2_6_2 + flow_5_2_6_6 + flow_5_2_6_8
   + flow_6_2_4_2 + flow_6_2_4_6 + flow_7_2_3_2 + flow_7_2_3_6
   + flow_8_2_5_2 + flow_8_2_5_6 = 1
 one_parent_3: edge_0_3_0_2 + edge_0_3_0_3 + edge_0_3_0_8 + edge_1_3_10_2
   + edge_1_3_10_3 + edge_1_3_10_8 + edge_1_3_12_8 + edge_2_3_2_8
   + edge_2_3_6_3 + edge_2_3_6_8 + edge_2_3_8_2 + edge_4_3_1_8
   + edge_5_3_6_2 + edge_5_3_6_3 + edge_5_3_6_8 + edge_6_3_4_8
   + edge_7_3_3_3 + edge_7_3_3_8 + edge_7_3_5_2 + edge_8_3_5_8 = 1
 one_pos_3: pos_3_2 + pos_3_3 + pos_3_8 = 1
 consume_one_flow_unit_3: flow_0_3_0_2 + flow_0_3_0_3 + flow_0_3_0_8
   + flow_1_3_10_2 + flow_1_3_10_3 + flow_1_3_10_8 + flow_1_3_12_8
   + flow_2_3_2_8 + flow_2_3_6_3 + flow_2_3_6_8 + flow_2_3_8_2
   - flow_3_1_2_10 - flow_3_1_3_10 - flow_3_1_8_10 - flow_3_1_8_12
   - flow_3_2_2_8 - flow_3_2_3_6 - flow_3_2_8_2 - flow_3_2_8_6
   - flow_3_4_3_1 - flow_3_4_8_1 - flow_3_5_2_6 - flow_3_5_3_6
   - flow_3_5_8_6 - flow_3_6_3_5 - flow_3_6_8_4 - flow_3_7_2_5
   - flow_3_7_3_3 - flow_3_7_8_3 - flow_3_8_3_5 - flow_3_8_8_5
   + flow_4_3_1_8 + flow_5_3_6_2 + flow_5_3_6_3 + flow_5_3_6_8
   + flow_6_3_4_8 + flow_7_3_3_3 + flow_7_3_3_8 + flow_7_3_5_2
   + flow_8_3_5_8 = 1
 one_parent_4: edge_0_4_0_1 + edge_1_4_10_1 + edge_2_4_2_1 + edge_2_4_6_1
   + edge_3_4_3_1 + edge_3_4_8_1 + edge_5_4_6_1 + edge_6_4_4_1
   + edge_7_4_3_1 + edge_8_4_5_1 = 1
 one_pos_4: pos_4_1 = 1
 consume_one_flow_unit_4: flow_0_4_0_1 + flow_1_4_10_1 + flow_2_4_2_1
   + flow_2_4_6_1 + flow_3_4_3_1 + flow_3_4_8_1 - flow_4_1_1_10
   - flow_4_1_1_12 - flow_4_2_1_2 - flow_4_2_1_6 - flow_4_3_1_8
   - flow_4_5_1_6 - flow_4_6_1_4 - flow_4_6_1_5 - flow_4_7_1_3
   - flow_4_8_1_5 + flow_5_4_6_1 + flow_6_4_4_1 + flow_7_4_3_1
   + flow_8_4_5_1 = 1
 one_parent_5: edge_0_5_0_6 + edge_1_5_10_6 + edge_1_5_12_6 + edge_2_5_2_6
   + edge_2_5_6_6 + edge_2_5_8_6 + edge_3_5_2_6 + edge_3_5_3_6
   + edge_3_5_8_6 + edge_4_5_1_6 + edge_6_5_4_6 + edge_7_5_3_6
   + edge_7_5_5_6 + edge_8_5_5_6 = 1
 one_pos_5: pos_5_6 = 1
 consume_one_flow_unit_5: flow_0_5_0_6 + flow_1_5_10_6 + flow_1_5_12_6
   + flow_2_5_2_6 + flow_2_5_6_6 + flow_2_5_8_6 + flow_3_5_2_6
   + flow_3_5_3_6 + flow_3_5_8_6 + flow_4_5_1_6 - flow_5_1_6_10
   - flow_5_1_6_12 - flow_5_2_6_2 - flow_5_2_6_6 - flow_5_2_6_8
   - flow_5_3_6_2 - flow_5_3_6_3 - flow_5_3_6_8 - flow_5_4_6_1
   - flow_5_6_6_4 - flow_5_6_6_5 - flow_5_7_6_3 - flow_5_7_6_5
   - flow_5_8_6_5 + flow_6_5_4_6 + flow_7_5_3_6 + flow_7_5_5_6
   + flow_8_5_5_6 = 1
 one_parent_6: edge_0_6_0_4 + edge_0_6_0_5 + edge_1_6_10_4 + edge_1_6_10_5
   + edge_1_6_12_4 + edge_2_6_2_4 + edge_2_6_6_4 + edge_2_6_6_5
   + edge_3_6_3_5 + edge_3_6_8_4 + edge_4_6_1_4 + edge_4_6_1_5
   + edge_5_6_6_4 + edge_5_6_6_5 + edge_7_6_3_4 + edge_7_6_3_5
   + edge_8_6_5_4 + edge_8_6_5_5 = 1
 one_pos_6: pos_6_4 + pos_6_5 = 1
 consume_one_flow_unit_6: flow_0_6_0_4 + flow_0_6_0_5 + flow_1_6_10_4
   + flow_1_6_10_5 + flow_1_6_12_4 + flow_2_6_2_4 + flow_2_6_6_4
   + flow_2_6_6_5 + flow_3_6_3_5 + flow_3_6_8_4 + flow_4_6_1_4
   + flow_4_6_1_5 + flow_5_6_6_4 + flow_5_6_6_5 - flow_6_1_4_10
   - flow_6_1_4_12 - flow_6_2_4_2 - flow_6_2_4_6 - flow_6_3_4_8
   - flow_6_4_4_1 - flow_6_5_4_6 - flow_6_7_4_3 - flow_6_7_5_3
   - flow_6_8_4_5 - flow_6_8_5_5 + flow_7_6_3_4 + flow_7_6_3_5
   + flow_8_6_5_4 + flow_8_6_5_5 = 1
 one_parent_7: edge_0_7_0_3 + edge_0_7_0_5 + edge_1_7_10_3 + edge_1_7_10_5
   + edge_1_7_12_3 + edge_2_7_2_3 + edge_2_7_6_3 + edge_2_7_8_5
   + edge_3_7_2_5 + edge_3_7_3_3 + edge_3_7_8_3 + edge_4_7_1_3
   + edge_5_7_6_3 + edge_5_7_6_5 + edge_6_7_4_3 + edge_6_7_5_3
   + edge_8_7_5_3 = 1
 one_pos_7: pos_7_3 + pos_7_5 = 1
 consume_one_flow_unit_7: flow_0_7_0_3 + flow_0_7_0_5 + flow_1_7_10_3
   + flow_1_7_10_5 + flow_1_7_12_3 + flow_2_7_2_3 + flow_2_7_6_3
   + flow_2_7_8_5 + flow_3_7_2_5 + flow_3_7_3_3 + flow_3_7_8_3
   + flow_4_7_1_3 + flow_5_7_6_3 + flow_5_7_6_5 + flow_6_7_4_3
   + flow_6_7_5_3 - flow_7_1_3_10 - flow_7_1_3_12 - flow_7_1_5_10
   - flow_7_2_3_2 - flow_7_2_3_6 - flow_7_3_3_3 - flow_7_3_3_8
   - flow_7_3_5_2 - flow_7_4_3_1 - flow_7_5_3_6 - flow_7_5_5_6
   - flow_7_6_3_4 - flow_7_6_3_5 - flow_7_8_3_5 + flow_8_7_5_3 = 1
 one_parent_8: edge_0_8_0_5 + edge_1_8_10_5 + edge_1_8_12_5 + edge_2_8_2_5
   + edge_2_8_6_5 + edge_3_8_3_5 + edge_3_8_8_5 + edge_4_8_1_5
   + edge_5_8_6_5 + edge_6_8_4_5 + edge_6_8_5_5 + edge_7_8_3_5 = 1
 one_pos_8: pos_8_5 = 1
 consume_one_flow_unit_8: flow_0_8_0_5 + flow_1_8_10_5 + flow_1_8_12_5
   + flow_2_8_2_5 + flow_2_8_6_5 + flow_3_8_3_5 + flow_3_8_8_5
   + flow_4_8_1_5 + flow_5_8_6_5 + flow_6_8_4_5 + flow_6_8_5_5
   + flow_7_8_3_5 - flow_8_2_5_2 - flow_8_2_5_6 - flow_8_3_5_8
   - flow_8_4_5_1 - flow_8_5_5_6 - flow_8_6_5_4 - flow_8_6_5_5
   - flow_8_7_5_3 = 1
 root_flow: flow_0_1_0_10 + flow_0_1_0_12 + flow_0_2_0_2 + flow_0_2_0_6
   + flow_0_2_0_8 + flow_0_3_0_2 + flow_0_3_0_3 + flow_0_3_0_8
   + flow_0_4_0_1 + flow_0_5_0_6 + flow_0_6_0_4 + flow_0_6_0_5
   + flow_0_7_0_3 + flow_0_7_0_5 + flow_0_8_0_5 = 8
 inactive_no_flow_0_1_0_10: flow_0_1_0_10 - 1000 edge_0_1_0_10 <= 0
 inactive_no_flow_0_1_0_12: flow_0_1_0_12 - 1000 edge_0_1_0_12 <= 0
 inactive_no_flow_0_2_0_2: flow_0_2_0_2 - 1000 edge_0_2_0_2 <= 0
 inactive_no_flow_0_2_0_6: flow_0_2_0_6 - 1000 edge_0_2_0_6 <= 0
 inactive_no_flow_0_2_0_8: flow_0_2_0_8 - 1000 edge_0_2_0_8 <= 0
 inactive_no_flow_0_3_0_2: flow_0_3_0_2 - 1000 edge_0_3_0_2 <= 0
 inactive_no_flow_0_3_0_3: flow_0_3_0_3 - 1000 edge_0_3_0_3 <= 0
 inactive_no_flow_0_3_0_8: flow_0_3_0_8 - 1000 edge_0_3_0_8 <= 0
 inactive_no_flow_0_4_0_1: flow_0_4_0_1 - 1000 edge_0_4_0_1 <= 0
 inactive_no_flow_0_5_0_6: flow_0_5_0_6 - 1000 edge_0_5_0_6 <= 0
 inactive_no_flow_0_6_0_4: flow_0_6_0_4 - 1000 edge_0_6_0_4 <= 0
 inactive_no_flow_0_6_0_5: flow_0_6_0_5 - 1000 edge_0_6_0_5 <= 0
 inactive_no_flow_0_7_0_3: flow_0_7_0_3 - 1000 edge_0_7_0_3 <= 0
 inactive_no_flow_0_7_0_5: flow_0_7_0_5 - 1000 edge_0_7_0_5 <= 0
 inactive_no_flow_0_8_0_5: flow_0_8_0_5 - 1000 edge_0_8_0_5 <= 0
 inactive_no_flow_1_2_10_6: flow_1_2_10_6 - 1000 edge_1_2_10_6 <= 0
 inactive_no_flow_1_2_10_8: flow_1_2_10_8 - 1000 edge_1_2_10_8 <= 0
 inactive_no_flow_1_2_12_2: flow_1_2_12_2 - 1000 edge_1_2_12_2 <= 0
 inactive_no_flow_1_3_10_2: flow_1_3_10_2 - 1000 edge_1_3_10_2 <= 0
 inactive_no_flow_1_3_10_3: flow_1_3_10_3 - 1000 edge_1_3_10_3 <= 0
 inactive_no_flow_1_3_10_8: flow_1_3_10_8 - 1000 edge_1_3_10_8 <= 0
 inactive_no_flow_1_3_12_8: flow_1_3_12_8 - 1000 edge_1_3_12_8 <= 0
 inactive_no_flow_1_4_10_1: flow_1_4_10_1 - 1000 edge_1_4_10_1 <= 0
 inactive_no_flow_1_5_10_6: flow_1_5_10_6 - 1000 edge_1_5_10_6 <= 0
 inactive_no_flow_1_5_12_6: flow_1_5_12_6 - 1000 edge_1_5_12_6 <= 0
 inactive_no_flow_1_6_10_4: flow_1_6_10_4 - 1000 edge_1_6_10_4 <= 0
 inactive_no_flow_1_6_10_5: flow_1_6_10_5 - 1000 edge_1_6_10_5 <= 0
 inactive_no_flow_1_6_12_4: flow_1_6_12_4 - 1000 edge_1_6_12_4 <= 0
 inactive_no_flow_1_7_10_3: flow_1_7_10_3 - 1000 edge_1_7_10_3 <= 0
 inactive_no_flow_1_7_10_5: flow_1_7_10_5 - 1000 edge_1_7_10_5 <= 0
 inactive_no_flow_1_7_12_3: flow_1_7_12_3 - 1000 edge_1_7_12_3 <= 0
 inactive_no_flow_1_8_10_5: flow_1_8_10_5 - 1000 edge_1_8_10_5 <= 0
 inactive_no_flow_1_8_12_5: flow_1_8_12_5 - 1000 edge_1_8_12_5 <= 0
 inactive_no_flow_2_1_2_12: flow_2_1_2_12 - 1000 edge_2_1_2_12 <= 0
 inactive_no_flow_2_1_6_10: flow_2_1_6_10 - 1000 edge_2_1_6_10 <= 0
 inactive_no_flow_2_1_8_10: flow_2_1_8_10 - 1000 edge_2_1_8_10 <= 0
 inactive_no_flow_2_3_2_8: flow_2_3_2_8 - 1000 edge_2_3_2_8 <= 0
 inactive_no_flow_2_3_6_3: flow_2_3_6_3 - 1000 edge_2_3_6_3 <= 0
 inactive_no_flow_2_3_6_8: flow_2_3_6_8 - 1000 edge_2_3_6_8 <= 0
 inactive_no_flow_2_3_8_2: flow_2_3_8_2 - 1000 edge_2_3_8_2 <= 0
 inactive_no_flow_2_4_2_1: flow_2_4_2_1 - 1000 edge_2_4_2_1 <= 0
 inactive_no_flow_2_4_6_1: flow_2_4_6_1 - 1000 edge_2_4_6_1 <= 0
 inactive_no_flow_2_5_2_6: flow_2_5_2_6 - 1000 edge_2_5_2_6 <= 0
 inactive_no_flow_2_5_6_6: flow_2_5_6_6 - 1000 edge_2_5_6_6 <= 0
 inactive_no_flow_2_5_8_6: flow_2_5_8_6 - 1000 edge_2_5_8_6 <= 0
 inactive_no_flow_2_6_2_4: flow_2_6_2_4 - 1000 edge_2_6_2_4 <= 0
 inactive_no_flow_2_6_6_4: flow_2_6_6_4 - 1000 edge_2_6_6_4 <= 0
 inactive_no_flow_2_6_6_5: flow_2_6_6_5 - 1000 edge_2_6_6_5 <= 0
 inactive_no_flow_2_7_2_3: flow_2_7_2_3 - 1000 edge_2_7_2_3 <= 0
 inactive_no_flow_2_7_6_3: flow_2_7_6_3 - 1000 edge_2_7_6_3 <= 0
 inactive_no_flow_2_7_8_5: flow_2_7_8_5 - 1000 edge_2_7_8_5 <= 0
 inactive_no_flow_2_8_2_5: flow_2_8_2_5 - 1000 edge_2_8_2_5 <= 0
 inactive_no_flow_2_8_6_5: flow_2_8_6_5 - 1000 edge_2_8_6_5 <= 0
 inactive_no_flow_3_1_2_10: flow_3_1_2_10 - 1000 edge_3_1_2_10 <= 0
 inactive_no_flow_3_1_3_10: flow_3_1_3_10 - 1000 edge_3_1_3_10 <= 0
 inactive_no_flow_3_1_8_10: flow_3_1_8_10 - 1000 edge_3_1_8_10 <= 0
 inactive_no_flow_3_1_8_12: flow_3_1_8_12 - 1000 edge_3_1_8_12 <= 0
 inactive_no_flow_3_2_2_8: flow_3_2_2_8 - 1000 edge_3_2_2_8 <= 0
 inactive_no_flow_3_2_3_6: flow_3_2_3_6 - 1000 edge_3_2_3_6 <= 0
 inactive_no_flow_3_2_8_2: flow_3_2_8_2 - 1000 edge_3_2_8_2 <= 0
 inactive_no_flow_3_2_8_6: flow_3_2_8_6 - 1000 edge_3_2_8_6 <= 0
 inactive_no_flow_3_4_3_1: flow_3_4_3_1 - 1000 edge_3_4_3_1 <= 0
 inactive_no_flow_3_4_8_1: flow_3_4_8_1 - 1000 edge_3_4_8_1 <= 0
 inactive_no_flow_3_5_2_6: flow_3_5_2_6 - 1000 edge_3_5_2_6 <= 0
 inactive_no_flow_3_5_3_6: flow_3_5_3_6 - 1000 edge_3_5_3_6 <= 0
 inactive_no_flow_3_5_8_6: flow_3_5_8_6 - 1000 edge_3_5_8_6 <= 0
 inactive_no_flow_3_6_3_5: flow_3_6_3_5 - 1000 edge_3_6_3_5 <= 0
 inactive_no_flow_3_6_8_4: flow_3_6_8_4 - 1000 edge_3_6_8_4 <= 0
 inactive_no_flow_3_7_2_5: flow_3_7_2_5 - 1000 edge_3_7_2_5 <= 0
 inactive_no_flow_3_7_3_3: flow_3_7_3_3 - 1000 edge_3_7_3_3 <= 0
 inactive_no_flow_3_7_8_3: flow_3_7_8_3 - 1000 edge_3_7_8_3 <= 0
 inactive_no_flow_3_8_3_5: flow_3_8_3_5 - 1000 edge_3_8_3_5 <= 0
 inactive_no_flow_3_8_8_5: flow_3_8_8_5 - 1000 edge_3_8_8_5 <= 0
 inactive_no_flow_4_1_1_10: flow_4_1_1_10 - 1000 edge_4_1_1_10 <= 0
 inactive_no_flow_4_1_1_12: flow_4_1_1_12 - 1000 edge_4_1_1_12 <= 0
 inactive_no_flow_4_2_1_2: flow_4_2_1_2 - 1000 edge_4_2_1_2 <= 0
 inactive_no_flow_4_2_1_6: flow_4_2_1_6 - 1000 edge_4_2_1_6 <= 0
 inactive_no_flow_4_3_1_8: flow_4_3_1_8 - 1000 edge_4_3_1_8 <= 0
 inactive_no_flow_4_5_1_6: flow_4_5_1_6 - 1000 edge_4_5_1_6 <= 0
 inactive_no_flow_4_6_1_4: flow_4_6_1_4 - 1000 edge_4_6_1_4 <= 0
 inactive_no_flow_4_6_1_5: flow_4_6_1_5 - 1000 edge_4_6_1_5 <= 0
 inactive_no_flow_4_7_1_3: flow_4_7_1_3 - 1000 edge_4_7_1_3 <= 0
 inactive_no_flow_4_8_1_5: flow_4_8_1_5 - 1000 edge_4_8_1_5 <= 0
 inactive_no_flow_5_1_6_10: flow_5_1_6_10 - 1000 edge_5_1_6_10 <= 0
 inactive_no_flow_5_1_6_12: flow_5_1_6_12 - 1000 edge_5_1_6_12 <= 0
 inactive_no_flow_5_2_6_2: flow_5_2_6_2 - 1000 edge_5_2_6_2 <= 0
 inactive_no_flow_5_2_6_6: flow_5_2_6_6 - 1000 edge_5_2_6_6 <= 0
 inactive_no_flow_5_2_6_8: flow_5_2_6_8 - 1000 edge_5_2_6_8 <= 0
 inactive_no_flow_5_3_6_2: flow_5_3_6_2 - 1000 edge_5_3_6_2 <= 0
 inactive_no_flow_5_3_6_3: flow_5_3_6_3 - 1000 edge_5_3_6_3 <= 0
 inactive_no_flow_5_3_6_8: flow_5_3_6_8 - 1000 edge_5_3_6_8 <= 0
 inactive_no_flow_5_4_6_1: flow_5_4_6_1 - 1000 edge_5_4_6_1 <= 0
 inactive_no_flow_5_6_6_4: flow_5_6_6_4 - 1000 edge_5_6_6_4 <= 0
 inactive_no_flow_5_6_6_5: flow_5_6_6_5 - 1000 edge_5_6_6_5 <= 0
 inactive_no_flow_5_7_6_3: flow_5_7_6_3 - 1000 edge_5_7_6_3 <= 0
 inactive_no_flow_5_7_6_5: flow_5_7_6_5 - 1000 edge_5_7_6_5 <= 0
 inactive_no_flow_5_8_6_5: flow_5_8_6_5 - 1000 edge_5_8_6_5 <= 0
 inactive_no_flow_6_1_4_10: flow_6_1_4_10 - 1000 edge_6_1_4_10 <= 0
 inactive_no_flow_6_1_4_12: flow_6_1_4_12 - 1000 edge_6_1_4_12 <= 0
 inactive_no_flow_6_2_4_2: flow_6_2_4_2 - 1000 edge_6_2_4_2 <= 0
 inactive_no_flow_6_2_4_6: flow_6_2_4_6 - 1000 edge_6_2_4_6 <= 0
 inactive_no_flow_6_3_4_8: flow_6_3_4_8 - 1000 edge_6_3_4_8 <= 0
 inactive_no_flow_6_4_4_1: flow_6_4_4_1 - 1000 edge_6_4_4_1 <= 0
 inactive_no_flow_6_5_4_6: flow_6_5_4_6 - 1000 edge_6_5_4_6 <= 0
 inactive_no_flow_6_7_4_3: flow_6_7_4_3 - 1000 edge_6_7_4_3 <= 0
 inactive_no_flow_6_7_5_3: flow_6_7_5_3 - 1000 edge_6_7_5_3 <= 0
 inactive_no_flow_6_8_4_5: flow_6_8_4_5 - 1000 edge_6_8_4_5 <= 0
 inactive_no_flow_6_8_5_5: flow_6_8_5_5 - 1000 edge_6_8_5_5 <= 0
 inactive_no_flow_7_1_3_10: flow_7_1_3_10 - 1000 edge_7_1_3_10 <= 0
 inactive_no_flow_7_1_3_12: flow_7_1_3_12 - 1000 edge_7_1_3_12 <= 0
 inactive_no_flow_7_1_5_10: flow_7_1_5_10 - 1000 edge_7_1_5_10 <= 0
 inactive_no_flow_7_2_3_2: flow_7_2_3_2 - 1000 edge_7_2_3_2 <= 0
 inactive_no_flow_7_2_3_6: flow_7_2_3_6 - 1000 edge_7_2_3_6 <= 0
 inactive_no_flow_7_3_3_3: flow_7_3_3_3 - 1000 edge_7_3_3_3 <= 0
 inactive_no_flow_7_3_3_8: flow_7_3_3_8 - 1000 edge_7_3_3_8 <= 0
 inactive_no_flow_7_3_5_2: flow_7_3_5_2 - 1000 edge_7_3_5_2 <= 0
 inactive_no_flow_7_4_3_1: flow_7_4_3_1 - 1000 edge_7_4_3_1 <= 0
 inactive_no_flow_7_5_3_6: flow_7_5_3_6 - 1000 edge_7_5_3_6 <= 0
 inactive_no_flow_7_5_5_6: flow_7_5_5_6 - 1000 edge_7_5_5_6 <= 0
 inactive_no_flow_7_6_3_4: flow_7_6_3_4 - 1000 edge_7_6_3_4 <= 0
 inactive_no_flow_7_6_3_5: flow_7_6_3_5 - 1000 edge_7_6_3_5 <= 0
 inactive_no_flow_7_8_3_5: flow_7_8_3_5 - 1000 edge_7_8_3_5 <= 0
 inactive_no_flow_8_2_5_2: flow_8_2_5_2 - 1000 edge_8_2_5_2 <= 0
 inactive_no_flow_8_2_5_6: flow_8_2_5_6 - 1000 edge_8_2_5_6 <= 0
 inactive_no_flow_8_3_5_8: flow_8_3_5_8 - 1000 edge_8_3_5_8 <= 0
 inactive_no_flow_8_4_5_1: flow_8_4_5_1 - 1000 edge_8_4_5_1 <= 0
 inactive_no_flow_8_5_5_6: flow_8_5_5_6 - 1000 edge_8_5_5_6 <= 0
 inactive_no_flow_8_6_5_4: flow_8_6_5_4 - 1000 edge_8_6_5_4 <= 0
 inactive_no_flow_8_6_5_5: flow_8_6_5_5 - 1000 edge_8_6_5_5 <= 0
 inactive_no_flow_8_7_5_3: flow_8_7_5_3 - 1000 edge_8_7_5_3 <= 0
 arc_0_1_0_10_pos_must_match_v: - edge_0_1_0_10 + pos_1_10 >= 0
 arc_0_1_0_12_pos_must_match_v: - edge_0_1_0_12 + pos_1_12 >= 0
 arc_0_2_0_2_pos_must_match_v: - edge_0_2_0_2 + pos_2_2 >= 0
 arc_0_2_0_6_pos_must_match_v: - edge_0_2_0_6 + pos_2_6 >= 0
 arc_0_2_0_8_pos_must_match_v: - edge_0_2_0_8 + pos_2_8 >= 0
 arc_0_3_0_2_pos_must_match_v: - edge_0_3_0_2 + pos_3_2 >= 0
 arc_0_3_0_3_pos_must_match_v: - edge_0_3_0_3 + pos_3_3 >= 0
 arc_0_3_0_8_pos_must_match_v: - edge_0_3_0_8 + pos_3_8 >= 0
 arc_0_4_0_1_pos_must_match_v: - edge_0_4_0_1 + pos_4_1 >= 0
 arc_0_5_0_6_pos_must_match_v: - edge_0_5_0_6 + pos_5_6 >= 0
 arc_0_6_0_4_pos_must_match_v: - edge_0_6_0_4 + pos_6_4 >= 0
 arc_0_6_0_5_pos_must_match_v: - edge_0_6_0_5 + pos_6_5 >= 0
 arc_0_7_0_3_pos_must_match_v: - edge_0_7_0_3 + pos_7_3 >= 0
 arc_0_7_0_5_pos_must_match_v: - edge_0_7_0_5 + pos_7_5 >= 0
 arc_0_8_0_5_pos_must_match_v: - edge_0_8_0_5 + pos_8_5 >= 0
 arc_1_2_10_6_pos_must_match_u: - edge_1_2_10_6 + pos_1_10 >= 0
 arc_1_2_10_6_pos_must_match_v: - edge_1_2_10_6 + pos_2_6 >= 0
 arc_1_2_10_8_pos_must_match_u: - edge_1_2_10_8 + pos_1_10 >= 0
 arc_1_2_10_8_pos_must_match_v: - edge_1_2_10_8 + pos_2_8 >= 0
 arc_1_2_12_2_pos_must_match_u: - edge_1_2_12_2 + pos_1_12 >= 0
 arc_1_2_12_2_pos_must_match_v: - edge_1_2_12_2 + pos_2_2 >= 0
 arc_1_3_10_2_pos_must_match_u: - edge_1_3_10_2 + pos_1_10 >= 0
 arc_1_3_10_2_pos_must_match_v: - edge_1_3_10_2 + pos_3_2 >= 0
 arc_1_3_10_3_pos_must_match_u: - edge_1_3_10_3 + pos_1_10 >= 0
 arc_1_3_10_3_pos_must_match_v: - edge_1_3_10_3 + pos_3_3 >= 0
 arc_1_3_10_8_pos_must_match_u: - edge_1_3_10_8 + pos_1_10 >= 0
 arc_1_3_10_8_pos_must_match_v: - edge_1_3_10_8 + pos_3_8 >= 0
 arc_1_3_12_8_pos_must_match_u: - edge_1_3_12_8 + pos_1_12 >= 0
 arc_1_3_12_8_pos_must_match_v: - edge_1_3_12_8 + pos_3_8 >= 0
 arc_1_4_10_1_pos_must_match_u: - edge_1_4_10_1 + pos_1_10 >= 0
 arc_1_4_10_1_pos_must_match_v: - edge_1_4_10_1 + pos_4_1 >= 0
 arc_1_5_10_6_pos_must_match_u: - edge_1_5_10_6 + pos_1_10 >= 0
 arc_1_5_10_6_pos_must_match_v: - edge_1_5_10_6 + pos_5_6 >= 0
 arc_1_5_12_6_pos_must_match_u: - edge_1_5_12_6 + pos_1_12 >= 0
 arc_1_5_12_6_pos_must_match_v: - edge_1_5_12_6 + pos_5_6 >= 0
 arc_1_6_10_4_pos_must_match_u: - edge_1_6_10_4 + pos_1_10 >= 0
 arc_1_6_10_4_pos_must_match_v: - edge_1_6_10_4 + pos_6_4 >= 0
 arc_1_6_10_5_pos_must_match_u: - edge_1_6_10_5 + pos_1_10 >= 0
 arc_1_6_10_5_pos_must_match_v: - edge_1_6_10_5 + pos_6_5 >= 0
 arc_1_6_12_4_pos_must_match_u: - edge_1_6_12_4 + pos_1_12 >= 0
 arc_1_6_12_4_pos_must_match_v: - edge_1_6_12_4 + pos_6_4 >= 0
 arc_1_7_10_3_pos_must_match_u: - edge_1_7_10_3 + pos_1_10 >= 0
 arc_1_7_10_3_pos_must_match_v: - edge_1_7_10_3 + pos_7_3 >= 0
 arc_1_7_10_5_pos_must_match_u: - edge_1_7_10_5 + pos_1_10 >= 0
 arc_1_7_10_5_pos_must_match_v: - edge_1_7_10_5 + pos_7_5 >= 0
 arc_1_7_12_3_pos_must_match_u: - edge_1_7_12_3 + pos_1_12 >= 0
 arc_1_7_12_3_pos_must_match_v: - edge_1_7_12_3 + pos_7_3 >= 0
 arc_1_8_10_5_pos_must_match_u: - edge_1_8_10_5 + pos_1_10 >= 0
 arc_1_8_10_5_pos_must_match_v: - edge_1_8_10_5 + pos_8_5 >= 0
 arc_1_8_12_5_pos_must_match_u: - edge_1_8_12_5 + pos_1_12 >= 0
 arc_1_8_12_5_pos_must_match_v: - edge_1_8_12_5 + pos_8_5 >= 0
 arc_2_1_2_12_pos_must_match_u: - edge_2_1_2_12 + pos_2_2 >= 0
 arc_2_1_2_12_pos_must_match_v: - edge_2_1_2_12 + pos_1_12 >= 0
 arc_2_1_6_10_pos_must_match_u: - edge_2_1_6_10 + pos_2_6 >= 0
 arc_2_1_6_10_pos_must_match_v: - edge_2_1_6_10 + pos_1_10 >= 0
 arc_2_1_8_10_pos_must_match_u: - edge_2_1_8_10 + pos_2_8 >= 0
 arc_2_1_8_10_pos_must_match_v: - edge_2_1_8_10 + pos_1_10 >= 0
 arc_2_3_2_8_pos_must_match_u: - edge_2_3_2_8 + pos_2_2 >= 0
 arc_2_3_2_8_pos_must_match_v: - edge_2_3_2_8 + pos_3_8 >= 0
 arc_2_3_6_3_pos_must_match_u: - edge_2_3_6_3 + pos_2_6 >= 0
 arc_2_3_6_3_pos_must_match_v: - edge_2_3_6_3 + pos_3_3 >= 0
 arc_2_3_6_8_pos_must_match_u: - edge_2_3_6_8 + pos_2_6 >= 0
 arc_2_3_6_8_pos_must_match_v: - edge_2_3_6_8 + pos_3_8 >= 0
 arc_2_3_8_2_pos_must_match_u: - edge_2_3_8_2 + pos_2_8 >= 0
 arc_2_3_8_2_pos_must_match_v: - edge_2_3_8_2 + pos_3_2 >= 0
 arc_2_4_2_1_pos_must_match_u: - edge_2_4_2_1 + pos_2_2 >= 0
 arc_2_4_2_1_pos_must_match_v: - edge_2_4_2_1 + pos_4_1 >= 0
 arc_2_4_6_1_pos_must_match_u: - edge_2_4_6_1 + pos_2_6 >= 0
 arc_2_4_6_1_pos_must_match_v: - edge_2_4_6_1 + pos_4_1 >= 0
 arc_2_5_2_6_pos_must_match_u: - edge_2_5_2_6 + pos_2_2 >= 0
 arc_2_5_2_6_pos_must_match_v: - edge_2_5_2_6 + pos_5_6 >= 0
 arc_2_5_6_6_pos_must_match_u: - edge_2_5_6_6 + pos_2_6 >= 0
 arc_2_5_6_6_pos_must_match_v: - edge_2_5_6_6 + pos_5_6 >= 0
 arc_2_5_8_6_pos_must_match_u: - edge_2_5_8_6 + pos_2_8 >= 0
 arc_2_5_8_6_pos_must_match_v: - edge_2_5_8_6 + pos_5_6 >= 0
 arc_2_6_2_4_pos_must_match_u: - edge_2_6_2_4 + pos_2_2 >= 0
 arc_2_6_2_4_pos_must_match_v: - edge_2_6_2_4 + pos_6_4 >= 0
 arc_2_6_6_4_pos_must_match_u: - edge_2_6_6_4 + pos_2_6 >= 0
 arc_2_6_6_4_pos_must_match_v: - edge_2_6_6_4 + pos_6_4 >= 0
 arc_2_6_6_5_pos_must_match_u: - edge_2_6_6_5 + pos_2_6 >= 0
 arc_2_6_6_5_pos_must_match_v: - edge_2_6_6_5 + pos_6_5 >= 0
 arc_2_7_2_3_pos_must_match_u: - edge_2_7_2_3 + pos_2_2 >= 0
 arc_2_7_2_3_pos_must_match_v: - edge_2_7_2_3 + pos_7_3 >= 0
 arc_2_7_6_3_pos_must_match_u: - edge_2_7_6_3 + pos_2_6 >= 0
 arc_2_7_6_3_pos_must_match_v: - edge_2_7_6_3 + pos_7_3 >= 0
 arc_2_7_8_5_pos_must_match_u: - edge_2_7_8_5 + pos_2_8 >= 0
 arc_2_7_8_5_pos_must_match_v: - edge_2_7_8_5 + pos_7_5 >= 0
 arc_2_8_2_5_pos_must_match_u: - edge_2_8_2_5 + pos_2_2 >= 0
 arc_2_8_2_5_pos_must_match_v: - edge_2_8_2_5 + pos_8_5 >= 0
 arc_2_8_6_5_pos_must_match_u: - edge_2_8_6_5 + pos_2_6 >= 0
 arc_2_8_6_5_pos_must_match_v: - edge_2_8_6_5 + pos_8_5 >= 0
 arc_3_1_2_10_pos_must_match_u: - edge_3_1_2_10 + pos_3_2 >= 0
 arc_3_1_2_10_pos_must_match_v: - edge_3_1_2_10 + pos_1_10 >= 0
 arc_3_1_3_10_pos_must_match_u: - edge_3_1_3_10 + pos_3_3 >= 0
 arc_3_1_3_10_pos_must_match_v: - edge_3_1_3_10 + pos_1_10 >= 0
 arc_3_1_8_10_pos_must_match_u: - edge_3_1_8_10 + pos_3_8 >= 0
 arc_3_1_8_10_pos_must_match_v: - edge_3_1_8_10 + pos_1_10 >= 0
 arc_3_1_8_12_pos_must_match_u: - edge_3_1_8_12 + pos_3_8 >= 0
 arc_3_1_8_12_pos_must_match_v: - edge_3_1_8_12 + pos_1_12 >= 0
 arc_3_2_2_8_pos_must_match_u: - edge_3_2_2_8 + pos_3_2 >= 0
 arc_3_2_2_8_pos_must_match_v: - edge_3_2_2_8 + pos_2_8 >= 0
 arc_3_2_3_6_pos_must_match_u: - edge_3_2_3_6 + pos_3_3 >= 0
 arc_3_2_3_6_pos_must_match_v: - edge_3_2_3_6 + pos_2_6 >= 0
 arc_3_2_8_2_pos_must_match_u: - edge_3_2_8_2 + pos_3_8 >= 0
 arc_3_2_8_2_pos_must_match_v: - edge_3_2_8_2 + pos_2_2 >= 0
 arc_3_2_8_6_pos_must_match_u: - edge_3_2_8_6 + pos_3_8 >= 0
 arc_3_2_8_6_pos_must_match_v: - edge_3_2_8_6 + pos_2_6 >= 0
 arc_3_4_3_1_pos_must_match_u: - edge_3_4_3_1 + pos_3_3 >= 0
 arc_3_4_3_1_pos_must_match_v: - edge_3_4_3_1 + pos_4_1 >= 0
 arc_3_4_8_1_pos_must_match_u: - edge_3_4_8_1 + pos_3_8 >= 0
 arc_3_4_8_1_pos_must_match_v: - edge_3_4_8_1 + pos_4_1 >= 0
 arc_3_5_2_6_pos_must_match_u: - edge_3_5_2_6 + pos_3_2 >= 0
 arc_3_5_2_6_pos_must_match_v: - edge_3_5_2_6 + pos_5_6 >= 0
 arc_3_5_3_6_pos_must_match_u: - edge_3_5_3_6 + pos_3_3 >= 0
 arc_3_5_3_6_pos_must_match_v: - edge_3_5_3_6 + pos_5_6 >= 0
 arc_3_5_8_6_pos_must_match_u: - edge_3_5_8_6 + pos_3_8 >= 0
 arc_3_5_8_6_pos_must_match_v: - edge_3_5_8_6 + pos_5_6 >= 0
 arc_3_6_3_5_pos_must_match_u: - edge_3_6_3_5 + pos_3_3 >= 0
 arc_3_6_3_5_pos_must_match_v: - edge_3_6_3_5 + pos_6_5 >= 0
 arc_3_6_8_4_pos_must_match_u: - edge_3_6_8_4 + pos_3_8 >= 0
 arc_3_6_8_4_pos_must_match_v: - edge_3_6_8_4 + pos_6_4 >= 0
 arc_3_7_2_5_pos_must_match_u: - edge_3_7_2_5 + pos_3_2 >= 0
 arc_3_7_2_5_pos_must_match_v: - edge_3_7_2_5 + pos_7_5 >= 0
 arc_3_7_3_3_pos_must_match_u: - edge_3_7_3_3 + pos_3_3 >= 0
 arc_3_7_3_3_pos_must_match_v: - edge_3_7_3_3 + pos_7_3 >= 0
 arc_3_7_8_3_pos_must_match_u: - edge_3_7_8_3 + pos_3_8 >= 0
 arc_3_7_8_3_pos_must_match_v: - edge_3_7_8_3 + pos_7_3 >= 0
 arc_3_8_3_5_pos_must_match_u: - edge_3_8_3_5 + pos_3_3 >= 0
 arc_3_8_3_5_pos_must_match_v: - edge_3_8_3_5 + pos_8_5 >= 0
 arc_3_8_8_5_pos_must_match_u: - edge_3_8_8_5 + pos_3_8 >= 0
 arc_3_8_8_5_pos_must_match_v: - edge_3_8_8_5 + pos_8_5 >= 0
 arc_4_1_1_10_pos_must_match_u: - edge_4_1_1_10 + pos_4_1 >= 0
 arc_4_1_1_10_pos_must_match_v: - edge_4_1_1_10 + pos_1_10 >= 0
 arc_4_1_1_12_pos_must_match_u: - edge_4_1_1_12 + pos_4_1 >= 0
 arc_4_1_1_12_pos_must_match_v: - edge_4_1_1_12 + pos_1_12 >= 0
 arc_4_2_1_2_pos_must_match_u: - edge_4_2_1_2 + pos_4_1 >= 0
 arc_4_2_1_2_pos_must_match_v: - edge_4_2_1_2 + pos_2_2 >= 0
 arc_4_2_1_6_pos_must_match_u: - edge_4_2_1_6 + pos_4_1 >= 0
 arc_4_2_1_6_pos_must_match_v: - edge_4_2_1_6 + pos_2_6 >= 0
 arc_4_3_1_8_pos_must_match_u: - edge_4_3_1_8 + pos_4_1 >= 0
 arc_4_3_1_8_pos_must_match_v: - edge_4_3_1_8 + pos_3_8 >= 0
 arc_4_5_1_6_pos_must_match_u: - edge_4_5_1_6 + pos_4_1 >= 0
 arc_4_5_1_6_pos_must_match_v: - edge_4_5_1_6 + pos_5_6 >= 0
 arc_4_6_1_4_pos_must_match_u: - edge_4_6_1_4 + pos_4_1 >= 0
 arc_4_6_1_4_pos_must_match_v: - edge_4_6_1_4 + pos_6_4 >= 0
 arc_4_6_1_5_pos_must_match_u: - edge_4_6_1_5 + pos_4_1 >= 0
 arc_4_6_1_5_pos_must_match_v: - edge_4_6_1_5 + pos_6_5 >= 0
 arc_4_7_1_3_pos_must_match_u: - edge_4_7_1_3 + pos_4_1 >= 0
 arc_4_7_1_3_pos_must_match_v: - edge_4_7_1_3 + pos_7_3 >= 0
 arc_4_8_1_5_pos_must_match_u: - edge_4_8_1_5 + pos_4_1 >= 0
 arc_4_8_1_5_pos_must_match_v: - edge_4_8_1_5 + pos_8_5 >= 0
 arc_5_1_6_10_pos_must_match_u: - edge_5_1_6_10 + pos_5_6 >= 0
 arc_5_1_6_10_pos_must_match_v: - edge_5_1_6_10 + pos_1_10 >= 0
 arc_5_1_6_12_pos_must_match_u: - edge_5_1_6_12 + pos_5_6 >= 0
 arc_5_1_6_12_pos_must_match_v: - edge_5_1_6_12 + pos_1_12 >= 0
 arc_5_2_6_2_pos_must_match_u: - edge_5_2_6_2 + pos_5_6 >= 0
 arc_5_2_6_2_pos_must_match_v: - edge_5_2_6_2 + pos_2_2 >= 0
 arc_5_2_6_6_pos_must_match_u: - edge_5_2_6_6 + pos_5_6 >= 0
 arc_5_2_6_6_pos_must_match_v: - edge_5_2_6_6 + pos_2_6 >= 0
 arc_5_2_6_8_pos_must_match_u: - edge_5_2_6_8 + pos_5_6 >= 0
 arc_5_2_6_8_pos_must_match_v: - edge_5_2_6_8 + pos_2_8 >= 0
 arc_5_3_6_2_pos_must_match_u: - edge_5_3_6_2 + pos_5_6 >= 0
 arc_5_3_6_2_pos_must_match_v: - edge_5_3_6_2 + pos_3_2 >= 0
 arc_5_3_6_3_pos_must_match_u: - edge_5_3_6_3 + pos_5_6 >= 0
 arc_5_3_6_3_pos_must_match_v: - edge_5_3_6_3 + pos_3_3 >= 0
 arc_5_3_6_8_pos_must_match_u: - edge_5_3_6_8 + pos_5_6 >= 0
 arc_5_3_6_8_pos_must_match_v: - edge_5_3_6_8 + pos_3_8 >= 0
 arc_5_4_6_1_pos_must_match_u: - edge_5_4_6_1 + pos_5_6 >= 0
 arc_5_4_6_1_pos_must_match_v: - edge_5_4_6_1 + pos_4_1 >= 0
 arc_5_6_6_4_pos_must_match_u: - edge_5_6_6_4 + pos_5_6 >= 0
 arc_5_6_6_4_pos_must_match_v: - edge_5_6_6_4 + pos_6_4 >= 0
 arc_5_6_6_5_pos_must_match_u: - edge_5_6_6_5 + pos_5_6 >= 0
 arc_5_6_6_5_pos_must_match_v: - edge_5_6_6_5 + pos_6_5 >= 0
 arc_5_7_6_3_pos_must_match_u: - edge_5_7_6_3 + pos_5_6 >= 0
 arc_5_7_6_3_pos_must_match_v: - edge_5_7_6_3 + pos_7_3 >= 0
 arc_5_7_6_5_pos_must_match_u: - edge_5_7_6_5 + pos_5_6 >= 0
 arc_5_7_6_5_pos_must_match_v: - edge_5_7_6_5 + pos_7_5 >= 0
 arc_5_8_6_5_pos_must_match_u: - edge_5_8_6_5 + pos_5_6 >= 0
 arc_5_8_6_5_pos_must_match_v: - edge_5_8_6_5 + pos_8_5 >= 0
 arc_6_1_4_10_pos_must_match_u: - edge_6_1_4_10 + pos_6_4 >= 0
 arc_6_1_4_10_pos_must_match_v: - edge_6_1_4_10 + pos_1_10 >= 0
 arc_6_1_4_12_pos_must_match_u: - edge_6_1_4_12 + pos_6_4 >= 0
 arc_6_1_4_12_pos_must_match_v: - edge_6_1_4_12 + pos_1_12 >= 0
 arc_6_2_4_2_pos_must_match_u: - edge_6_2_4_2 + pos_6_4 >= 0
 arc_6_2_4_2_pos_must_match_v: - edge_6_2_4_2 + pos_2_2 >= 0
 arc_6_2_4_6_pos_must_match_u: - edge_6_2_4_6 + pos_6_4 >= 0
 arc_6_2_4_6_pos_must_match_v: - edge_6_2_4_6 + pos_2_6 >= 0
 arc_6_3_4_8_pos_must_match_u: - edge_6_3_4_8 + pos_6_4 >= 0
 arc_6_3_4_8_pos_must_match_v: - edge_6_3_4_8 + pos_3_8 >= 0
 arc_6_4_4_1_pos_must_match_u: - edge_6_4_4_1 + pos_6_4 >= 0
 arc_6_4_4_1_pos_must_match_v: - edge_6_4_4_1 + pos_4_1 >= 0
 arc_6_5_4_6_pos_must_match_u: - edge_6_5_4_6 + pos_6_4 >= 0
 arc_6_5_4_6_pos_must_match_v: - edge_6_5_4_6 + pos_5_6 >= 0
 arc_6_7_4_3_pos_must_match_u: - edge_6_7_4_3 + pos_6_4 >= 0
 arc_6_7_4_3_pos_must_match_v: - edge_6_7_4_3 + pos_7_3 >= 0
 arc_6_7_5_3_pos_must_match_u: - edge_6_7_5_3 + pos_6_5 >= 0
 arc_6_7_5_3_pos_must_match_v: - edge_6_7_5_3 + pos_7_3 >= 0
 arc_6_8_4_5_pos_must_match_u: - edge_6_8_4_5 + pos_6_4 >= 0
 arc_6_8_4_5_pos_must_match_v: - edge_6_8_4_5 + pos_8_5 >= 0
 arc_6_8_5_5_pos_must_match_u: - edge_6_8_5_5 + pos_6_5 >= 0
 arc_6_8_5_5_pos_must_match_v: - edge_6_8_5_5 + pos_8_5 >= 0
 arc_7_1_3_10_pos_must_match_u: - edge_7_1_3_10 + pos_7_3 >= 0
 arc_7_1_3_10_pos_must_match_v: - edge_7_1_3_10 + pos_1_10 >= 0
 arc_7_1_3_12_pos_must_match_u: - edge_7_1_3_12 + pos_7_3 >= 0
 arc_7_1_3_12_pos_must_match_v: - edge_7_1_3_12 + pos_1_12 >= 0
 arc_7_1_5_10_pos_must_match_u: - edge_7_1_5_10 + pos_7_5 >= 0
 arc_7_1_5_10_pos_must_match_v: - edge_7_1_5_10 + pos_1_10 >= 0
 arc_7_2_3_2_pos_must_match_u: - edge_7_2_3_2 + pos_7_3 >= 0
 arc_7_2_3_2_pos_must_match_v: - edge_7_2_3_2 + pos_2_2 >= 0
 arc_7_2_3_6_pos_must_match_u: - edge_7_2_3_6 + pos_7_3 >= 0
 arc_7_2_3_6_pos_must_match_v: - edge_7_2_3_6 + pos_2_6 >= 0
 arc_7_3_3_3_pos_must_match_u: - edge_7_3_3_3 + pos_7_3 >= 0
 arc_7_3_3_3_pos_must_match_v: - edge_7_3_3_3 + pos_3_3 >= 0
 arc_7_3_3_8_pos_must_match_u: - edge_7_3_3_8 + pos_7_3 >= 0
 arc_7_3_3_8_pos_must_match_v: - edge_7_3_3_8 + pos_3_8 >= 0
 arc_7_3_5_2_pos_must_match_u: - edge_7_3_5_2 + pos_7_5 >= 0
 arc_7_3_5_2_pos_must_match_v: - edge_7_3_5_2 + pos_3_2 >= 0
 arc_7_4_3_1_pos_must_match_u: - edge_7_4_3_1 + pos_7_3 >= 0
 arc_7_4_3_1_pos_must_match_v: - edge_7_4_3_1 + pos_4_1 >= 0
 arc_7_5_3_6_pos_must_match_u: - edge_7_5_3_6 + pos_7_3 >= 0
 arc_7_5_3_6_pos_must_match_v: - edge_7_5_3_6 + pos_5_6 >= 0
 arc_7_5_5_6_pos_must_match_u: - edge_7_5_5_6 + pos_7_5 >= 0
 arc_7_5_5_6_pos_must_match_v: - edge_7_5_5_6 + pos_5_6 >= 0
 arc_7_6_3_4_pos_must_match_u: - edge_7_6_3_4 + pos_7_3 >= 0
 arc_7_6_3_4_pos_must_match_v: - edge_7_6_3_4 + pos_6_4 >= 0
 arc_7_6_3_5_pos_must_match_u: - edge_7_6_3_5 + pos_7_3 >= 0
 arc_7_6_3_5_pos_must_match_v: - edge_7_6_3_5 + pos_6_5 >= 0
 arc_7_8_3_5_pos_must_match_u: - edge_7_8_3_5 + pos_7_3 >= 0
 arc_7_8_3_5_pos_must_match_v: - edge_7_8_3_5 + pos_8_5 >= 0
 arc_8_2_5_2_pos_must_match_u: - edge_8_2_5_2 + pos_8_5 >= 0
 arc_8_2_5_2_pos_must_match_v: - edge_8_2_5_2 + pos_2_2 >= 0
 arc_8_2_5_6_pos_must_match_u: - edge_8_2_5_6 + pos_8_5 >= 0
 arc_8_2_5_6_pos_must_match_v: - edge_8_2_5_6 + pos_2_6 >= 0
 arc_8_3_5_8_pos_must_match_u: - edge_8_3_5_8 + pos_8_5 >= 0
 arc_8_3_5_8_pos_must_match_v: - edge_8_3_5_8 + pos_3_8 >= 0
 arc_8_4_5_1_pos_must_match_u: - edge_8_4_5_1 + pos_8_5 >= 0
 arc_8_4_5_1_pos_must_match_v: - edge_8_4_5_1 + pos_4_1 >= 0
 arc_8_5_5_6_pos_must_match_u: - edge_8_5_5_6 + pos_8_5 >= 0
 arc_8_5_5_6_pos_must_match_v: - edge_8_5_5_6 + pos_5_6 >= 0
 arc_8_6_5_4_pos_must_match_u: - edge_8_6_5_4 + pos_8_5 >= 0
 arc_8_6_5_4_pos_must_match_v: - edge_8_6_5_4 + pos_6_4 >= 0
 arc_8_6_5_5_pos_must_match_u: - edge_8_6_5_5 + pos_8_5 >= 0
 arc_8_6_5_5_pos_must_match_v: - edge_8_6_5_5 + pos_6_5 >= 0
 arc_8_7_5_3_pos_must_match_u: - edge_8_7_5_3 + pos_8_5 >= 0
 arc_8_7_5_3_pos_must_match_v: - edge_8_7_5_3 + pos_7_3 >= 0
Bounds
Binaries
 edge_0_1_0_10 edge_0_1_0_12 edge_0_2_0_2 edge_0_2_0_6 edge_0_2_0_8
 edge_0_3_0_2 edge_0_3_0_3 edge_0_3_0_8 edge_0_4_0_1 edge_0_5_0_6
 edge_0_6_0_4 edge_0_6_0_5 edge_0_7_0_3 edge_0_7_0_5 edge_0_8_0_5
 edge_1_2_10_6 edge_1_2_10_8 edge_1_2_12_2 edge_1_3_10_2 edge_1_3_10_3
 edge_1_3_10_8 edge_1_3_12_8 edge_1_4_10_1 edge_1_5_10_6 edge_1_5_12_6
 edge_1_6_10_4 edge_1_6_10_5 edge_1_6_12_4 edge_1_7_10_3 edge_1_7_10_5
 edge_1_7_12_3 edge_1_8_10_5 edge_1_8_12_5 edge_2_1_2_12 edge_2_1_6_10
 edge_2_1_8_10 edge_2_3_2_8 edge_2_3_6_3 edge_2_3_6_8 edge_2_3_8_2
 edge_2_4_2_1 edge_2_4_6_1 edge_2_5_2_6 edge_2_5_6_6 edge_2_5_8_6
 edge_2_6_2_4 edge_2_6_6_4 edge_2_6_6_5 edge_2_7_2_3 edge_2_7_6_3
 edge_2_7_8_5 edge_2_8_2_5 edge_2_8_6_5 edge_3_1_2_10 edge_3_1_3_10
 edge_3_1_8_10 edge_3_1_8_12 edge_3_2_2_8 edge_3_2_3_6 edge_3_2_8_2
 edge_3_2_8_6 edge_3_4_3_1 edge_3_4_8_1 edge_3_5_2_6 edge_3_5_3_6
 edge_3_5_8_6 edge_3_6_3_5 edge_3_6_8_4 edge_3_7_2_5 edge_3_7_3_3
 edge_3_7_8_3 edge_3_8_3_5 edge_3_8_8_5 edge_4_1_1_10 edge_4_1_1_12
 edge_4_2_1_2 edge_4_2_1_6 edge_4_3_1_8 edge_4_5_1_6 edge_4_6_1_4
 edge_4_6_1_5 edge_4_7_1_3 edge_4_8_1_5 edge_5_1_6_10 edge_5_1_6_12
 edge_5_2_6_2 edge_5_2_6_6 edge_5_2_6_8 edge_5_3_6_2 edge_5_3_6_3
 edge_5_3_6_8 edge_5_4_6_1 edge_5_6_6_4 edge_5_6_6_5 edge_5_7_6_3
 edge_5_7_6_5 edge_5_8_6_5 edge_6_1_4_10 edge_6_1_4_12 edge_6_2_4_2
 edge_6_2_4_6 edge_6_3_4_8 edge_6_4_4_1 edge_6_5_4_6 edge_6_7_4_3
 edge_6_7_5_3 edge_6_8_4_5 edge_6_8_5_5 edge_7_1_3_10 edge_7_1_3_12
 edge_7_1_5_10 edge_7_2_3_2 edge_7_2_3_6 edge_7_3_3_3 edge_7_3_3_8
 edge_7_3_5_2 edge_7_4_3_1 edge_7_5_3_6 edge_7_5_5_6 edge_7_6_3_4
 edge_7_6_3_5 edge_7_8_3_5 edge_8_2_5_2 edge_8_2_5_6 edge_8_3_5_8
 edge_8_4_5_1 edge_8_5_5_6 edge_8_6_5_4 edge_8_6_5_5 edge_8_7_5_3 pos_1_10
 pos_1_12 pos_2_2 pos_2_6 pos_2_8 pos_3_2 pos_3_3 pos_3_8 pos_4_1 pos_5_6
 pos_6_4 pos_6_5 pos_7_3 pos_7_5 pos_8_5
End
